; benchmark generated from python API
(set-info :status unknown)
(declare-fun S_4 () Real)
(declare-fun S_3 () Real)
(declare-fun C () Real)
(declare-fun S_1 () Real)
(declare-fun L_0 () Real)
(declare-fun A_0 () Real)
(declare-fun S_5 () Real)
(declare-fun A_4 () Real)
(declare-fun L_3 () Real)
(declare-fun S_0 () Real)
(declare-fun L0 () Real)
(declare-fun L_1 () Real)
(declare-fun A_2 () Real)
(declare-fun A_3 () Real)
(declare-fun A_1 () Real)
(declare-fun L_2 () Real)
(declare-fun S_2 () Real)
(declare-fun A_5 () Real)
(assert
 (let (($x42 (>= L0 0.0)))
 (let (($x644 (>= C 5.0)))
 (let (($x24547 (<= (+ (* (- 1.0) C) (* (- 1.0) L_3) A_3) (+ A_2 (* (- 1.0) L_1)))))
 (let (($x22398 (<= (+ (* 3.0 C) (* (- 1.0) S_4) S_0) 0.0)))
 (let ((?x701 (* (- 1.0) L_0)))
 (let ((?x597 (* (- 1.0) A_2)))
 (let ((?x23055 (+ C ?x597 L_2 A_1 ?x701)))
 (let (($x22481 (<= 0.0 ?x23055)))
 (let (($x22395 (not $x22481)))
 (let (($x2696 (<= (+ (* (- 1.0) L_1) A_3 (* (- 1.0) S_4)) 0.0)))
 (let (($x1215 (not (<= 0.0 (+ (* (- 1.0) L_2) L_1)))))
 (let (($x24340 (<= 0.0 (+ (* (- 1.0) C) ?x597 A_3))))
 (let (($x25185 (not $x24340)))
 (let (($x23318 (<= (+ (* (- 1.0) L_1) A_2 C (* (- 1.0) S_4)) 0.0)))
 (let (($x21130 (<= 0.0 (+ C (* (- 1.0) A_1) S_0 L_1))))
 (let (($x23999 (<= (+ (* 2.0 C) (* (- 1.0) S_4) S_1) 0.0)))
 (let (($x8439 (<= (+ (* (- 1.0) L_2) A_3 (* (- 1.0) S_4)) 0.0)))
 (let (($x69 (= L_2 L_1)))
 (let (($x22629 (not (<= 0.0 (+ C (* (- 1.0) A_1) S_0 L_0)))))
 (let (($x2583 (<= 0.0 (+ A_1 (* 2.0 L_2) ?x597 ?x701 (* (- 1.0) A_3) S_5))))
 (let (($x1949 (= L_2 L_0)))
 (let ((?x593 (* (- 1.0) A_3)))
 (let ((?x2596 (* 2.0 L_1)))
 (let ((?x601 (* (- 1.0) A_1)))
 (let ((?x1425 (* (- 2.0) C)))
 (let (($x59 (= L_1 L_0)))
 (let (($x38959 (or $x59 (not (<= 0.0 (+ ?x2596 (* (- 1.0) C) ?x593 ?x601 S_5 S_1))))))
 (let (($x38978 (or $x59 (not (<= 0.0 (+ ?x2596 ?x597 (* (- 1.0) C) ?x601 S_5 S_0))))))
 (let (($x24928 (not (<= 0.0 (+ C ?x597 (* 2.0 L_2) ?x593 S_5 S_0)))))
 (let (($x21265 (<= (+ (* 2.0 C) A_1 ?x701 (* (- 1.0) S_4)) 0.0)))
 (let (($x24270 (<= (+ (* 3.0 C) L_3 ?x593 S_0) (- 5.0))))
 (let (($x23407 (>= (+ ?x597 L_1 (* (- 1.0) C) (* (- 1.0) L_3) A_3) 5.0)))
 (let (($x79 (= L_3 L_2)))
 (let ((?x950 (* 2.0 C)))
 (let ((?x523 (+ ?x950 ?x597 L_2 S_0)))
 (let (($x21433 (<= 0.0 ?x523)))
 (let (($x22930 (not $x21433)))
 (let (($x19615 (<= 0.0 (+ (* (- 1.0) C) L_3 ?x593 S_5))))
 (let (($x2632 (<= (+ (* (- 1.0) L_1) A_2 (* (- 1.0) S_3)) 0.0)))
 (let (($x39028 (or $x69 (not (= 0.0 (+ C ?x597 L_2 A_1 (* (- 1.0) L_1)))) $x24928)))
 (let (($x22639 (<= 0.0 (+ ?x1425 L_2 ?x597 S_5))))
 (let (($x39199 (or $x19615 (<= (+ (* 3.0 C) A_1 ?x701 (* (- 1.0) S_5)) 0.0) $x22639 (<= (+ (* 4.0 C) (* (- 1.0) S_5) S_0) 0.0))))
 (let (($x24748 (<= 0.0 (+ (* (- 1.0) C) ?x597 (* 2.0 L_2) ?x593 S_2 S_5))))
 (let (($x38898 (or $x69 (not (<= 0.0 (+ ?x597 (* 2.0 L_2) ?x593 S_5 S_1))))))
 (let (($x38658 (or (<= 0.0 (+ (* (- 1.0) L_1) L_0)) (<= S_0 (+ A_2 (* (- 2.0) L_1) L_3 ?x593 A_1)))))
 (let ((?x23392 (+ L_3 ?x593 A_1 ?x950)))
 (let (($x23393 (<= L_1 ?x23392)))
 (let (($x23394 (not $x23393)))
 (let (($x23260 (= (+ (* (- 1.0) L_1) A_1 ?x950 L_3 ?x593) 0.0)))
 (let (($x38506 (or $x79 (>= S_1 (+ A_2 (* (- 2.0) L_1) L_3 ?x593 A_1)) (not (<= (+ (* (- 1.0) L_1) ?x1425 A_2 (* (- 1.0) S_1)) 0.0)))))
 (let (($x23300 (<= (+ (* (- 1.0) L_1) ?x1425 A_2 (* (- 1.0) S_1)) 0.0)))
 (let (($x24587 (or $x22639 $x19615 (<= (+ (* 3.0 C) (* (- 1.0) S_5) S_1) 0.0))))
 (let (($x1609 (= L_3 L_1)))
 (let (($x1308 (not (= L_1 L_2))))
 (let (($x38654 (or $x1308 $x1609 (<= 0.0 (+ L_1 (* (- 1.0) C) (* (- 1.0) L_3) A_3 ?x597)))))
 (let (($x24008 (>= S_0 (+ A_2 (* (- 2.0) L_1) L_3 ?x593 A_1 (* (- 1.0) C)))))
 (let ((?x22452 (+ C L_3 ?x593 S_2)))
 (let (($x22693 (<= 0.0 ?x22452)))
 (let (($x23232 (<= (+ (* (- 1.0) L_1) (* (- 1.0) C) A_2 (* (- 1.0) S_2)) 0.0)))
 (let (($x38284 (or $x79 (>= S_2 (+ A_2 (* (- 2.0) L_1) L_3 ?x593 A_1 C)) (not $x23232))))
 (let (($x38201 (or $x59 (<= S_1 (+ A_2 (* (- 2.0) L_1) L_3 ?x593 A_1 C)))))
 (let (($x38103 (or $x79 (<= (+ A_2 (* (- 2.0) L_1) L_3 ?x593 A_1) (+ A_0 ?x701)) $x23260 $x23394)))
 (let (($x23842 (not (<= L_0 ?x23392))))
 (let (($x23838 (= (+ ?x701 A_1 ?x950 L_3 ?x593) 0.0)))
 (let (($x2080 (not (= L_0 L_1))))
 (let (($x26273 (or $x79 (not (<= 0.0 (+ (* (- 1.0) L_2) L_0))) (<= (+ ?x701 A_2 (* (- 1.0) S_3)) 0.0) $x23838 $x23842)))
 (let (($x22480 (or $x69 $x79 (= (+ (* (- 1.0) C) ?x597 (* (- 1.0) L_3) L_2 A_3) 0.0))))
 (let (($x41 (>= L_0 L0)))
 (let (($x131 (>= S_1 S_0)))
 (let (($x134 (>= S_2 S_1)))
 (let (($x137 (>= S_3 S_2)))
 (let (($x140 (>= S_4 S_3)))
 (let (($x143 (>= S_5 S_4)))
 (let (($x145 (>= A_1 A_0)))
 (let (($x146 (>= A_2 A_1)))
 (let (($x147 (>= A_3 A_2)))
 (let (($x149 (>= A_5 A_4)))
 (and (<= (+ A_3 (* (- 1.0) L_3)) S_5) $x149 $x147 $x146 $x145 $x143 $x140 $x137 $x134 $x131 $x41 (or $x21130 (<= (+ C (* (- 1.0) S_2) S_0) 0.0)) $x22480 (or (<= (+ A_1 ?x701 (* (- 1.0) S_2)) 0.0) $x22629) (or $x79 (not $x19615)) (or $x59 (not (<= 0.0 (+ L_0 (* (- 1.0) L_1))))) (or $x69 $x1215) (or $x59 (<= (+ L_1 C ?x601 S_0) (- 5.0))) (or $x59 $x2632 $x22930) (or $x59 (<= (+ L_1 ?x601 S_1) (- 5.0))) (or $x1949 (<= (+ ?x701 C A_1 L_2 ?x597) (- 5.0)) $x22629) (or $x22481 $x22629 (<= (+ C A_1 ?x701 (* (- 1.0) S_3)) 0.0)) (or $x69 (<= 0.0 (+ C A_2 ?x593)) (not (= L_2 L_3))) (or $x59 $x69 (= (+ C ?x597 L_2 A_1 (* (- 1.0) L_1)) 0.0)) (or $x79 (<= (+ L_3 ?x593 S_3) (- 5.0))) (<= (+ ?x1425 (* (- 1.0) S_0) S_1) 0.0) (or $x79 (<= (+ (* (- 1.0) C) L_3 ?x593 S_4) (- 5.0))) (<= (+ (* (- 1.0) C) ?x601 L_0 S_2) 0.0) (or $x59 $x1215 (<= 0.0 (+ C ?x597 A_1))) (<= (+ ?x1425 L_0 (* (- 1.0) A_0) S_2) 0.0) (or $x19615 (<= (+ ?x950 S_2 (* (- 1.0) S_5)) 0.0)) (or $x23232 (not (<= 0.0 (+ ?x1425 ?x597 S_4 L_2)))) (or $x59 $x79 $x22639 $x23260) (or $x1949 $x2080 $x22395 (= ?x23055 0.0)) (or $x79 (<= ?x22452 (- 5.0))) (or $x21130 $x21433 (<= (+ ?x950 (* (- 1.0) S_3) S_0) 0.0)) (or $x79 (not (<= 0.0 (+ (* (- 1.0) L_3) L_2)))) (<= (+ L_1 ?x597 S_2) 0.0) (or $x59 (<= (+ (* (- 1.0) C) L_1 ?x601 S_2) (- 5.0))) (or $x59 (not (<= 0.0 (+ ?x2596 ?x593 ?x601 S_5 S_0)))) (<= (+ L_1 ?x597 (* (- 3.0) C) S_5) 0.0) (or $x69 (<= (+ ?x1425 L_2 ?x597 S_4) (- 5.0))) (<= (+ (* (- 5.0) C) L_0 (* (- 1.0) A_0) S_5) 0.0) $x26273 (or $x79 $x2080 $x22639 $x23838 $x23842) (or $x79 $x23260 $x23394 $x23407) $x38103 $x38201 $x38284 (or $x79 $x23232 $x23260 $x23394) (or $x59 $x23393) (<= (+ ?x1425 S_2 (* (- 1.0) S_1)) 0.0) (or $x69 (<= (+ L_2 ?x597 S_2) (- 5.0))) (or $x2632 (<= (+ C (* (- 1.0) S_3) S_1) 0.0)) (<= (+ L_2 ?x593 S_3) 0.0) (<= (+ ?x601 L_0 S_1) 0.0) (or $x69 (<= (+ (* (- 1.0) C) ?x597 L_2 S_3) (- 5.0))) (or $x69 (not $x22639)) (<= (+ (* (- 4.0) C) ?x601 L_0 S_5) 0.0) (or $x69 (<= (+ C L_2 ?x597 S_1) (- 5.0))) (<= (+ (* (- 3.0) C) S_2 (* (- 1.0) S_0)) 0.0) (or $x22693 (<= (+ C (* (- 1.0) S_4) S_2) 0.0)) (<= (+ (* (- 1.0) C) L_2 ?x593 S_4) 0.0) (or $x79 (<= (+ ?x950 L_3 ?x593 A_1 ?x701) (- 5.0)) $x22481 $x22629) (<= (+ L_1 ?x1425 ?x593 S_5) 0.0) (<= (+ (* (- 3.0) C) S_4 (* (- 1.0) S_2)) 0.0) (<= (+ (* (- 3.0) C) S_3 (* (- 1.0) S_1)) 0.0) (or $x59 (<= (+ (* (- 3.0) C) L_1 ?x601 S_4) (- 5.0))) (<= (+ L_1 ?x597 ?x1425 S_4) 0.0) (<= (+ (* (- 4.0) C) S_4 (* (- 1.0) S_1)) 0.0) (or $x79 $x23260 $x23394 $x24008) $x38654 $x24587 (<= (+ (* (- 4.0) C) L_0 (* (- 1.0) A_0) S_4) 0.0) (or $x79 $x23260 $x23300 $x23394) $x38506 (or $x79 $x23260 $x23318 $x23394) (<= (+ (* (- 3.0) C) L_0 (* (- 1.0) A_0) S_3) 0.0) (<= (+ L_1 ?x597 (* (- 1.0) C) S_3) 0.0) (or $x59 (not (<= 0.0 (+ ?x2596 ?x597 ?x1425 ?x601 S_5 S_1)))) (or $x59 (not (<= 0.0 (+ (* (- 3.0) C) L_1 ?x601 S_5)))) (or $x79 $x2632 $x23260 $x23394) $x38658 (or $x1215 $x2696 $x23318 $x23999) $x38898 (or $x69 (not $x24748)) (or $x8439 (not $x22693)) $x39199 (<= (+ (* (- 4.0) C) (* (- 1.0) S_2) S_5) 0.0) (<= (+ (* (- 5.0) C) S_4 (* (- 1.0) S_0)) 0.0) (<= (+ (* (- 4.0) C) S_3 (* (- 1.0) S_0)) 0.0) (<= (+ ?x1425 S_3 (* (- 1.0) S_2)) 0.0) (<= (+ (* (- 6.0) C) S_5 (* (- 1.0) S_0)) 0.0) (<= (+ (* (- 5.0) C) S_5 (* (- 1.0) S_1)) 0.0) $x39028 (or $x22639 $x19615 $x23999) (or $x79 $x23407 (<= (+ ?x950 L_3 ?x593 S_1) (- 5.0))) (or $x2632 $x22395 $x22930) (or $x69 $x19615 $x21130 $x22398) (or $x19615 $x21265 $x22481 $x22629) (or $x19615 $x22395 $x22930 $x23318) (or $x19615 $x21130 $x22398 $x23318) (or $x79 $x22395 $x23407 $x24270) (or $x79 $x21130 $x23407 $x24270) (or $x59 (<= (+ ?x1425 L_1 ?x601 S_3) (- 5.0))) (or $x8439 $x21130 $x22398 $x24340) (or $x8439 $x21265 $x22481 $x22629) (or $x69 $x21130 $x24928) $x38978 (or $x69 (<= ?x523 (- 5.0)) $x21130) $x38959 (or $x59 (not (<= 0.0 (+ ?x1425 ?x601 ?x2596 ?x593 S_2 S_5)))) (or $x1949 (not $x2583) $x22629) (or $x69 $x8439 $x23999) (<= (+ (* (- 3.0) C) L_0 ?x601 S_4) 0.0) (<= (+ ?x1425 ?x601 L_0 S_3) 0.0) (or $x22395 $x22398 $x23318 $x25185) (or $x21130 $x22398 $x23318 $x25185) (or $x1215 $x2696 $x22395 $x22398 (not $x24547)) $x644 $x42 (<= (+ (* (- 1.0) A_0) S_0 L_0) 0.0) (not (>= (+ L_3 (* (- 1.0) A_4) S_5) 0.0)) (<= (+ ?x1425 (* (- 1.0) S_4) S_5) 0.0) (<= (+ C S_3 (* (- 1.0) S_5)) 0.0) (<= (+ (* (- 3.0) C) (* (- 1.0) S_3) S_5) 0.0) (<= (+ (* (- 1.0) C) (* (- 1.0) A_0) L_0 S_1) 0.0) (<= (+ ?x1425 (* (- 1.0) S_3) S_4) 0.0))))))))))))))))))))))))))))))))))))))))))))))))))))))))))))))))))))))))))))))))
(check-sat)
